3947.0 130601.0 
3913.0 132287.0 
3944.0 131705.0 
3921.0 131906.0 
3940.0 131850.0 
4022.0 129954.0 
3910.0 133425.0 
3929.0 131904.0 
4210.0 128931.0 
4000.0 130312.0 
4029.0 129914.0 
3945.0 131593.0 
4038.0 129562.0 
4120.0 129475.0 
